NAME: random-3-14995
TYPE: TSP
COMMENT: size=3 seed=14995
DIMENSION: 8
EDGE_WEIGHT_TYPE: EUC_2D
NODE_COORD_SECTION
+0 965 871
-0 965 871
+1 114 539
-1 145 797
+2 43 750
-2 550 339
+3 920 644
-3 818 11
PRECEDENCE_SECTION
+0 -0
+1 -1
+2 -2
+3 -3
EOF
